p cnf 535 1714
20 -1 -4 0
-20 1 0
-20 4 0
26 -2 -6 0
-26 2 0
-26 6 0
27 -3 -5 0
-27 3 0
-27 5 0
14 -1 -5 0
-14 1 0
-14 5 0
21 -2 -4 0
-21 2 0
-21 4 0
18 -2 -6 0
-18 2 0
-18 6 0
17 -3 -5 0
-17 3 0
-17 5 0
25 -3 -6 0
-25 3 0
-25 6 0
15 -1 -6 0
-15 1 0
-15 6 0
12 -2 -5 0
-12 2 0
-12 5 0
13 -3 -4 0
-13 3 0
-13 4 0
24 -3 -6 0
-24 3 0
-24 6 0
-23 -20 -26 0
23 20 -26 0
23 -20 26 0
-23 20 26 0
-16 -14 -21 0
16 14 -21 0
16 -14 21 0
-16 14 21 0
-22 -18 -17 0
22 18 -17 0
22 -18 17 0
-22 18 17 0
-28 -15 -12 0
28 15 -12 0
28 -15 12 0
-28 15 12 0
-11 -13 -24 0
11 13 -24 0
11 -13 24 0
-11 13 24 0
-87 -23 -27 0
87 23 -27 0
87 -23 27 0
-87 23 27 0
16 -7 93 0
16 7 -93 0
-16 -8 93 0
-16 8 -93 0
16 -9 94 0
16 9 -94 0
-16 -10 94 0
-16 10 -94 0
22 -93 19 0
22 93 -19 0
-22 -94 19 0
-22 94 -19 0
-91 -28 -11 0
91 28 -11 0
91 -28 11 0
-91 28 11 0
-89 -19 -25 0
89 19 -25 0
89 -19 25 0
-89 19 25 0
54 -1 -1 0
-54 1 0
-54 1 0
66 -54 -54 0
-66 54 0
-66 54 0
55 -1 -1 0
-55 1 0
-55 1 0
49 -54 -54 0
-49 54 0
-49 54 0
-72 -66 -2 0
72 66 -2 0
72 -66 2 0
-72 66 2 0
-67 -55 -72 0
67 55 -72 0
67 -55 72 0
-67 55 72 0
-39 -49 -2 0
39 49 -2 0
39 -49 2 0
-39 49 2 0
65 -72 -72 0
-65 72 0
-65 72 0
-81 -67 -3 0
81 67 -3 0
81 -67 3 0
-81 67 3 0
-41 -39 -81 0
41 39 -81 0
41 -39 81 0
-41 39 81 0
-75 -65 -3 0
75 65 -3 0
75 -65 3 0
-75 65 3 0
69 -81 -81 0
-69 81 0
-69 81 0
61 -41 -41 0
-61 41 0
-61 41 0
85 -75 -75 0
-85 75 0
-85 75 0
53 -69 -69 0
-53 69 0
-53 69 0
43 -4 -4 0
-43 4 0
-43 4 0
37 -43 -43 0
-37 43 0
-37 43 0
82 -4 -4 0
-82 4 0
-82 4 0
47 -43 -43 0
-47 43 0
-47 43 0
-40 -37 -5 0
40 37 -5 0
40 -37 5 0
-40 37 5 0
-77 -82 -40 0
77 82 -40 0
77 -82 40 0
-77 82 40 0
-68 -47 -5 0
68 47 -5 0
68 -47 5 0
-68 47 5 0
31 -40 -40 0
-31 40 0
-31 40 0
-50 -77 -6 0
50 77 -6 0
50 -77 6 0
-50 77 6 0
-35 -68 -50 0
35 68 -50 0
35 -68 50 0
-35 68 50 0
-36 -31 -6 0
36 31 -6 0
36 -31 6 0
-36 31 6 0
34 -50 -50 0
-34 50 0
-34 50 0
58 -35 -35 0
-58 35 0
-58 35 0
78 -36 -36 0
-78 36 0
-78 36 0
73 -34 -34 0
-73 34 0
-73 34 0
59 -61 -58 0
-59 61 0
-59 58 0
95 -61 -78 0
-95 61 0
-95 78 0
-60 -95 -59 0
60 95 -59 0
60 -95 59 0
-60 95 59 0
96 -85 -58 0
-96 85 0
-96 58 0
-83 -96 -60 0
83 96 -60 0
83 -96 60 0
-83 96 60 0
38 -61 -73 0
-38 61 0
-38 73 0
57 -59 -59 0
-57 59 0
-57 59 0
97 -85 -78 0
-97 85 0
-97 78 0
-98 -97 -38 0
98 97 -38 0
98 -97 38 0
-98 97 38 0
-64 -98 -83 0
64 98 -83 0
64 -98 83 0
-64 98 83 0
99 -85 -73 0
-99 85 0
-99 73 0
-32 -99 -57 0
32 99 -57 0
32 -99 57 0
-32 99 57 0
30 -83 -83 0
-30 83 0
-30 83 0
100 -53 -58 0
-100 53 0
-100 58 0
-71 -100 -64 0
71 100 -64 0
71 -100 64 0
-71 100 64 0
101 -53 -78 0
-101 53 0
-101 78 0
-102 -101 -32 0
102 101 -32 0
102 -101 32 0
-102 101 32 0
-84 -102 -71 0
84 102 -71 0
84 -102 71 0
-84 102 71 0
103 -53 -73 0
-103 53 0
-103 73 0
-48 -103 -30 0
48 103 -30 0
48 -103 30 0
-48 103 30 0
62 -71 -71 0
-62 71 0
-62 71 0
33 -84 -84 0
-33 84 0
-33 84 0
44 -48 -48 0
-44 48 0
-44 48 0
52 -62 -62 0
-52 62 0
-52 62 0
51 -33 -33 0
-51 33 0
-51 33 0
80 -51 -51 0
-80 51 0
-80 51 0
45 -111 -111 0
-45 111 0
-45 111 0
46 -51 -51 0
-46 51 0
-46 51 0
-74 -80 -44 0
74 80 -44 0
74 -80 44 0
-74 80 44 0
-29 -45 -74 0
29 45 -74 0
29 -45 74 0
-29 45 74 0
79 -46 -46 0
-79 46 0
-79 46 0
86 -74 -74 0
-86 74 0
-86 74 0
-63 -29 -52 0
63 29 -52 0
63 -29 52 0
-63 29 52 0
-76 -79 -63 0
76 79 -63 0
76 -79 63 0
-76 79 63 0
42 -86 -86 0
-42 86 0
-42 86 0
56 -63 -63 0
-56 63 0
-56 63 0
88 -76 -76 0
-88 76 0
-88 76 0
90 -42 -42 0
-90 42 0
-90 42 0
92 -56 -56 0
-92 56 0
-92 56 0
-104 -87 -88 0
104 87 -88 0
104 -87 88 0
-104 87 88 0
-105 -89 -90 0
105 89 -90 0
105 -89 90 0
-105 89 90 0
-106 -91 -92 0
106 91 -92 0
106 -91 92 0
-106 91 92 0
-107 -111 -111 0
107 111 -111 0
107 -111 111 0
-107 111 111 0
-108 104 105 0
108 -104 0
108 -105 0
-109 106 107 0
109 -106 0
109 -107 0
-110 108 109 0
110 -108 0
110 -109 0
110 0
112 0
113 0
114 0
115 0
116 0
117 0
127 -112 -115 0
-127 112 0
-127 115 0
133 -113 -117 0
-133 113 0
-133 117 0
134 -114 -116 0
-134 114 0
-134 116 0
121 -112 -116 0
-121 112 0
-121 116 0
128 -113 -115 0
-128 113 0
-128 115 0
125 -113 -117 0
-125 113 0
-125 117 0
124 -114 -116 0
-124 114 0
-124 116 0
132 -114 -117 0
-132 114 0
-132 117 0
122 -112 -117 0
-122 112 0
-122 117 0
119 -113 -116 0
-119 113 0
-119 116 0
120 -114 -115 0
-120 114 0
-120 115 0
131 -114 -117 0
-131 114 0
-131 117 0
-130 -127 -133 0
130 127 -133 0
130 -127 133 0
-130 127 133 0
-123 -121 -128 0
123 121 -128 0
123 -121 128 0
-123 121 128 0
-129 -125 -124 0
129 125 -124 0
129 -125 124 0
-129 125 124 0
-135 -122 -119 0
135 122 -119 0
135 -122 119 0
-135 122 119 0
-118 -120 -131 0
118 120 -131 0
118 -120 131 0
-118 120 131 0
-194 -130 -134 0
194 130 -134 0
194 -130 134 0
-194 130 134 0
123 -7 200 0
123 7 -200 0
-123 -8 200 0
-123 8 -200 0
123 -9 201 0
123 9 -201 0
-123 -10 201 0
-123 10 -201 0
129 -200 126 0
129 200 -126 0
-129 -201 126 0
-129 201 -126 0
-198 -135 -118 0
198 135 -118 0
198 -135 118 0
-198 135 118 0
-196 -126 -132 0
196 126 -132 0
196 -126 132 0
-196 126 132 0
161 -112 -112 0
-161 112 0
-161 112 0
173 -161 -161 0
-173 161 0
-173 161 0
162 -112 -112 0
-162 112 0
-162 112 0
156 -161 -161 0
-156 161 0
-156 161 0
-179 -173 -113 0
179 173 -113 0
179 -173 113 0
-179 173 113 0
-174 -162 -179 0
174 162 -179 0
174 -162 179 0
-174 162 179 0
-146 -156 -113 0
146 156 -113 0
146 -156 113 0
-146 156 113 0
172 -179 -179 0
-172 179 0
-172 179 0
-188 -174 -114 0
188 174 -114 0
188 -174 114 0
-188 174 114 0
-148 -146 -188 0
148 146 -188 0
148 -146 188 0
-148 146 188 0
-182 -172 -114 0
182 172 -114 0
182 -172 114 0
-182 172 114 0
176 -188 -188 0
-176 188 0
-176 188 0
168 -148 -148 0
-168 148 0
-168 148 0
192 -182 -182 0
-192 182 0
-192 182 0
160 -176 -176 0
-160 176 0
-160 176 0
150 -115 -115 0
-150 115 0
-150 115 0
144 -150 -150 0
-144 150 0
-144 150 0
189 -115 -115 0
-189 115 0
-189 115 0
154 -150 -150 0
-154 150 0
-154 150 0
-147 -144 -116 0
147 144 -116 0
147 -144 116 0
-147 144 116 0
-184 -189 -147 0
184 189 -147 0
184 -189 147 0
-184 189 147 0
-175 -154 -116 0
175 154 -116 0
175 -154 116 0
-175 154 116 0
138 -147 -147 0
-138 147 0
-138 147 0
-157 -184 -117 0
157 184 -117 0
157 -184 117 0
-157 184 117 0
-142 -175 -157 0
142 175 -157 0
142 -175 157 0
-142 175 157 0
-143 -138 -117 0
143 138 -117 0
143 -138 117 0
-143 138 117 0
141 -157 -157 0
-141 157 0
-141 157 0
165 -142 -142 0
-165 142 0
-165 142 0
185 -143 -143 0
-185 143 0
-185 143 0
180 -141 -141 0
-180 141 0
-180 141 0
166 -168 -165 0
-166 168 0
-166 165 0
202 -168 -185 0
-202 168 0
-202 185 0
-167 -202 -166 0
167 202 -166 0
167 -202 166 0
-167 202 166 0
203 -192 -165 0
-203 192 0
-203 165 0
-190 -203 -167 0
190 203 -167 0
190 -203 167 0
-190 203 167 0
145 -168 -180 0
-145 168 0
-145 180 0
164 -166 -166 0
-164 166 0
-164 166 0
204 -192 -185 0
-204 192 0
-204 185 0
-205 -204 -145 0
205 204 -145 0
205 -204 145 0
-205 204 145 0
-171 -205 -190 0
171 205 -190 0
171 -205 190 0
-171 205 190 0
206 -192 -180 0
-206 192 0
-206 180 0
-139 -206 -164 0
139 206 -164 0
139 -206 164 0
-139 206 164 0
137 -190 -190 0
-137 190 0
-137 190 0
207 -160 -165 0
-207 160 0
-207 165 0
-178 -207 -171 0
178 207 -171 0
178 -207 171 0
-178 207 171 0
208 -160 -185 0
-208 160 0
-208 185 0
-209 -208 -139 0
209 208 -139 0
209 -208 139 0
-209 208 139 0
-191 -209 -178 0
191 209 -178 0
191 -209 178 0
-191 209 178 0
210 -160 -180 0
-210 160 0
-210 180 0
-155 -210 -137 0
155 210 -137 0
155 -210 137 0
-155 210 137 0
169 -178 -178 0
-169 178 0
-169 178 0
140 -191 -191 0
-140 191 0
-140 191 0
151 -155 -155 0
-151 155 0
-151 155 0
159 -169 -169 0
-159 169 0
-159 169 0
158 -140 -140 0
-158 140 0
-158 140 0
187 -158 -158 0
-187 158 0
-187 158 0
152 -111 -111 0
-152 111 0
-152 111 0
153 -158 -158 0
-153 158 0
-153 158 0
-181 -187 -151 0
181 187 -151 0
181 -187 151 0
-181 187 151 0
-136 -152 -181 0
136 152 -181 0
136 -152 181 0
-136 152 181 0
186 -153 -153 0
-186 153 0
-186 153 0
193 -181 -181 0
-193 181 0
-193 181 0
-170 -136 -159 0
170 136 -159 0
170 -136 159 0
-170 136 159 0
-183 -186 -170 0
183 186 -170 0
183 -186 170 0
-183 186 170 0
149 -193 -193 0
-149 193 0
-149 193 0
163 -170 -170 0
-163 170 0
-163 170 0
195 -183 -183 0
-195 183 0
-195 183 0
197 -149 -149 0
-197 149 0
-197 149 0
199 -163 -163 0
-199 163 0
-199 163 0
-211 -194 -195 0
211 194 -195 0
211 -194 195 0
-211 194 195 0
-212 -196 -197 0
212 196 -197 0
212 -196 197 0
-212 196 197 0
-213 -198 -199 0
213 198 -199 0
213 -198 199 0
-213 198 199 0
-214 -111 -111 0
214 111 -111 0
214 -111 111 0
-214 111 111 0
-215 211 212 0
215 -211 0
215 -212 0
-216 213 214 0
216 -213 0
216 -214 0
-217 215 216 0
217 -215 0
217 -216 0
-217 0
218 0
219 0
220 0
221 0
222 0
-223 0
233 -218 -221 0
-233 218 0
-233 221 0
239 -219 -223 0
-239 219 0
-239 223 0
240 -220 -222 0
-240 220 0
-240 222 0
227 -218 -222 0
-227 218 0
-227 222 0
234 -219 -221 0
-234 219 0
-234 221 0
231 -219 -223 0
-231 219 0
-231 223 0
230 -220 -222 0
-230 220 0
-230 222 0
238 -220 -223 0
-238 220 0
-238 223 0
228 -218 -223 0
-228 218 0
-228 223 0
225 -219 -222 0
-225 219 0
-225 222 0
226 -220 -221 0
-226 220 0
-226 221 0
237 -220 -223 0
-237 220 0
-237 223 0
-236 -233 -239 0
236 233 -239 0
236 -233 239 0
-236 233 239 0
-229 -227 -234 0
229 227 -234 0
229 -227 234 0
-229 227 234 0
-235 -231 -230 0
235 231 -230 0
235 -231 230 0
-235 231 230 0
-241 -228 -225 0
241 228 -225 0
241 -228 225 0
-241 228 225 0
-224 -226 -237 0
224 226 -237 0
224 -226 237 0
-224 226 237 0
-300 -236 -240 0
300 236 -240 0
300 -236 240 0
-300 236 240 0
229 -7 306 0
229 7 -306 0
-229 -8 306 0
-229 8 -306 0
229 -9 307 0
229 9 -307 0
-229 -10 307 0
-229 10 -307 0
235 -306 232 0
235 306 -232 0
-235 -307 232 0
-235 307 -232 0
-304 -241 -224 0
304 241 -224 0
304 -241 224 0
-304 241 224 0
-302 -232 -238 0
302 232 -238 0
302 -232 238 0
-302 232 238 0
267 -218 -218 0
-267 218 0
-267 218 0
279 -267 -267 0
-279 267 0
-279 267 0
268 -218 -218 0
-268 218 0
-268 218 0
262 -267 -267 0
-262 267 0
-262 267 0
-285 -279 -219 0
285 279 -219 0
285 -279 219 0
-285 279 219 0
-280 -268 -285 0
280 268 -285 0
280 -268 285 0
-280 268 285 0
-252 -262 -219 0
252 262 -219 0
252 -262 219 0
-252 262 219 0
278 -285 -285 0
-278 285 0
-278 285 0
-294 -280 -220 0
294 280 -220 0
294 -280 220 0
-294 280 220 0
-254 -252 -294 0
254 252 -294 0
254 -252 294 0
-254 252 294 0
-288 -278 -220 0
288 278 -220 0
288 -278 220 0
-288 278 220 0
282 -294 -294 0
-282 294 0
-282 294 0
274 -254 -254 0
-274 254 0
-274 254 0
298 -288 -288 0
-298 288 0
-298 288 0
266 -282 -282 0
-266 282 0
-266 282 0
256 -221 -221 0
-256 221 0
-256 221 0
250 -256 -256 0
-250 256 0
-250 256 0
295 -221 -221 0
-295 221 0
-295 221 0
260 -256 -256 0
-260 256 0
-260 256 0
-253 -250 -222 0
253 250 -222 0
253 -250 222 0
-253 250 222 0
-290 -295 -253 0
290 295 -253 0
290 -295 253 0
-290 295 253 0
-281 -260 -222 0
281 260 -222 0
281 -260 222 0
-281 260 222 0
244 -253 -253 0
-244 253 0
-244 253 0
-263 -290 -223 0
263 290 -223 0
263 -290 223 0
-263 290 223 0
-248 -281 -263 0
248 281 -263 0
248 -281 263 0
-248 281 263 0
-249 -244 -223 0
249 244 -223 0
249 -244 223 0
-249 244 223 0
247 -263 -263 0
-247 263 0
-247 263 0
271 -248 -248 0
-271 248 0
-271 248 0
291 -249 -249 0
-291 249 0
-291 249 0
286 -247 -247 0
-286 247 0
-286 247 0
272 -274 -271 0
-272 274 0
-272 271 0
308 -274 -291 0
-308 274 0
-308 291 0
-273 -308 -272 0
273 308 -272 0
273 -308 272 0
-273 308 272 0
309 -298 -271 0
-309 298 0
-309 271 0
-296 -309 -273 0
296 309 -273 0
296 -309 273 0
-296 309 273 0
251 -274 -286 0
-251 274 0
-251 286 0
270 -272 -272 0
-270 272 0
-270 272 0
310 -298 -291 0
-310 298 0
-310 291 0
-311 -310 -251 0
311 310 -251 0
311 -310 251 0
-311 310 251 0
-277 -311 -296 0
277 311 -296 0
277 -311 296 0
-277 311 296 0
312 -298 -286 0
-312 298 0
-312 286 0
-245 -312 -270 0
245 312 -270 0
245 -312 270 0
-245 312 270 0
243 -296 -296 0
-243 296 0
-243 296 0
313 -266 -271 0
-313 266 0
-313 271 0
-284 -313 -277 0
284 313 -277 0
284 -313 277 0
-284 313 277 0
314 -266 -291 0
-314 266 0
-314 291 0
-315 -314 -245 0
315 314 -245 0
315 -314 245 0
-315 314 245 0
-297 -315 -284 0
297 315 -284 0
297 -315 284 0
-297 315 284 0
316 -266 -286 0
-316 266 0
-316 286 0
-261 -316 -243 0
261 316 -243 0
261 -316 243 0
-261 316 243 0
275 -284 -284 0
-275 284 0
-275 284 0
246 -297 -297 0
-246 297 0
-246 297 0
257 -261 -261 0
-257 261 0
-257 261 0
265 -275 -275 0
-265 275 0
-265 275 0
264 -246 -246 0
-264 246 0
-264 246 0
293 -264 -264 0
-293 264 0
-293 264 0
258 -111 -111 0
-258 111 0
-258 111 0
259 -264 -264 0
-259 264 0
-259 264 0
-287 -293 -257 0
287 293 -257 0
287 -293 257 0
-287 293 257 0
-242 -258 -287 0
242 258 -287 0
242 -258 287 0
-242 258 287 0
292 -259 -259 0
-292 259 0
-292 259 0
299 -287 -287 0
-299 287 0
-299 287 0
-276 -242 -265 0
276 242 -265 0
276 -242 265 0
-276 242 265 0
-289 -292 -276 0
289 292 -276 0
289 -292 276 0
-289 292 276 0
255 -299 -299 0
-255 299 0
-255 299 0
269 -276 -276 0
-269 276 0
-269 276 0
301 -289 -289 0
-301 289 0
-301 289 0
303 -255 -255 0
-303 255 0
-303 255 0
305 -269 -269 0
-305 269 0
-305 269 0
-317 -300 -301 0
317 300 -301 0
317 -300 301 0
-317 300 301 0
-318 -302 -303 0
318 302 -303 0
318 -302 303 0
-318 302 303 0
-319 -304 -305 0
319 304 -305 0
319 -304 305 0
-319 304 305 0
-320 -111 -111 0
320 111 -111 0
320 -111 111 0
-320 111 111 0
-321 317 318 0
321 -317 0
321 -318 0
-322 319 320 0
322 -319 0
322 -320 0
-323 321 322 0
323 -321 0
323 -322 0
-323 0
324 0
325 0
326 0
327 0
-328 0
-329 0
339 -324 -327 0
-339 324 0
-339 327 0
345 -325 -329 0
-345 325 0
-345 329 0
346 -326 -328 0
-346 326 0
-346 328 0
333 -324 -328 0
-333 324 0
-333 328 0
340 -325 -327 0
-340 325 0
-340 327 0
337 -325 -329 0
-337 325 0
-337 329 0
336 -326 -328 0
-336 326 0
-336 328 0
344 -326 -329 0
-344 326 0
-344 329 0
334 -324 -329 0
-334 324 0
-334 329 0
331 -325 -328 0
-331 325 0
-331 328 0
332 -326 -327 0
-332 326 0
-332 327 0
343 -326 -329 0
-343 326 0
-343 329 0
-342 -339 -345 0
342 339 -345 0
342 -339 345 0
-342 339 345 0
-335 -333 -340 0
335 333 -340 0
335 -333 340 0
-335 333 340 0
-341 -337 -336 0
341 337 -336 0
341 -337 336 0
-341 337 336 0
-347 -334 -331 0
347 334 -331 0
347 -334 331 0
-347 334 331 0
-330 -332 -343 0
330 332 -343 0
330 -332 343 0
-330 332 343 0
-406 -342 -346 0
406 342 -346 0
406 -342 346 0
-406 342 346 0
335 -7 412 0
335 7 -412 0
-335 -8 412 0
-335 8 -412 0
335 -9 413 0
335 9 -413 0
-335 -10 413 0
-335 10 -413 0
341 -412 338 0
341 412 -338 0
-341 -413 338 0
-341 413 -338 0
-410 -347 -330 0
410 347 -330 0
410 -347 330 0
-410 347 330 0
-408 -338 -344 0
408 338 -344 0
408 -338 344 0
-408 338 344 0
373 -324 -324 0
-373 324 0
-373 324 0
385 -373 -373 0
-385 373 0
-385 373 0
374 -324 -324 0
-374 324 0
-374 324 0
368 -373 -373 0
-368 373 0
-368 373 0
-391 -385 -325 0
391 385 -325 0
391 -385 325 0
-391 385 325 0
-386 -374 -391 0
386 374 -391 0
386 -374 391 0
-386 374 391 0
-358 -368 -325 0
358 368 -325 0
358 -368 325 0
-358 368 325 0
384 -391 -391 0
-384 391 0
-384 391 0
-400 -386 -326 0
400 386 -326 0
400 -386 326 0
-400 386 326 0
-360 -358 -400 0
360 358 -400 0
360 -358 400 0
-360 358 400 0
-394 -384 -326 0
394 384 -326 0
394 -384 326 0
-394 384 326 0
388 -400 -400 0
-388 400 0
-388 400 0
380 -360 -360 0
-380 360 0
-380 360 0
404 -394 -394 0
-404 394 0
-404 394 0
372 -388 -388 0
-372 388 0
-372 388 0
362 -327 -327 0
-362 327 0
-362 327 0
356 -362 -362 0
-356 362 0
-356 362 0
401 -327 -327 0
-401 327 0
-401 327 0
366 -362 -362 0
-366 362 0
-366 362 0
-359 -356 -328 0
359 356 -328 0
359 -356 328 0
-359 356 328 0
-396 -401 -359 0
396 401 -359 0
396 -401 359 0
-396 401 359 0
-387 -366 -328 0
387 366 -328 0
387 -366 328 0
-387 366 328 0
350 -359 -359 0
-350 359 0
-350 359 0
-369 -396 -329 0
369 396 -329 0
369 -396 329 0
-369 396 329 0
-354 -387 -369 0
354 387 -369 0
354 -387 369 0
-354 387 369 0
-355 -350 -329 0
355 350 -329 0
355 -350 329 0
-355 350 329 0
353 -369 -369 0
-353 369 0
-353 369 0
377 -354 -354 0
-377 354 0
-377 354 0
397 -355 -355 0
-397 355 0
-397 355 0
392 -353 -353 0
-392 353 0
-392 353 0
378 -380 -377 0
-378 380 0
-378 377 0
414 -380 -397 0
-414 380 0
-414 397 0
-379 -414 -378 0
379 414 -378 0
379 -414 378 0
-379 414 378 0
415 -404 -377 0
-415 404 0
-415 377 0
-402 -415 -379 0
402 415 -379 0
402 -415 379 0
-402 415 379 0
357 -380 -392 0
-357 380 0
-357 392 0
376 -378 -378 0
-376 378 0
-376 378 0
416 -404 -397 0
-416 404 0
-416 397 0
-417 -416 -357 0
417 416 -357 0
417 -416 357 0
-417 416 357 0
-383 -417 -402 0
383 417 -402 0
383 -417 402 0
-383 417 402 0
418 -404 -392 0
-418 404 0
-418 392 0
-351 -418 -376 0
351 418 -376 0
351 -418 376 0
-351 418 376 0
349 -402 -402 0
-349 402 0
-349 402 0
419 -372 -377 0
-419 372 0
-419 377 0
-390 -419 -383 0
390 419 -383 0
390 -419 383 0
-390 419 383 0
420 -372 -397 0
-420 372 0
-420 397 0
-421 -420 -351 0
421 420 -351 0
421 -420 351 0
-421 420 351 0
-403 -421 -390 0
403 421 -390 0
403 -421 390 0
-403 421 390 0
422 -372 -392 0
-422 372 0
-422 392 0
-367 -422 -349 0
367 422 -349 0
367 -422 349 0
-367 422 349 0
381 -390 -390 0
-381 390 0
-381 390 0
352 -403 -403 0
-352 403 0
-352 403 0
363 -367 -367 0
-363 367 0
-363 367 0
371 -381 -381 0
-371 381 0
-371 381 0
370 -352 -352 0
-370 352 0
-370 352 0
399 -370 -370 0
-399 370 0
-399 370 0
364 -111 -111 0
-364 111 0
-364 111 0
365 -370 -370 0
-365 370 0
-365 370 0
-393 -399 -363 0
393 399 -363 0
393 -399 363 0
-393 399 363 0
-348 -364 -393 0
348 364 -393 0
348 -364 393 0
-348 364 393 0
398 -365 -365 0
-398 365 0
-398 365 0
405 -393 -393 0
-405 393 0
-405 393 0
-382 -348 -371 0
382 348 -371 0
382 -348 371 0
-382 348 371 0
-395 -398 -382 0
395 398 -382 0
395 -398 382 0
-395 398 382 0
361 -405 -405 0
-361 405 0
-361 405 0
375 -382 -382 0
-375 382 0
-375 382 0
407 -395 -395 0
-407 395 0
-407 395 0
409 -361 -361 0
-409 361 0
-409 361 0
411 -375 -375 0
-411 375 0
-411 375 0
-423 -406 -407 0
423 406 -407 0
423 -406 407 0
-423 406 407 0
-424 -408 -409 0
424 408 -409 0
424 -408 409 0
-424 408 409 0
-425 -410 -411 0
425 410 -411 0
425 -410 411 0
-425 410 411 0
-426 -111 -111 0
426 111 -111 0
426 -111 111 0
-426 111 111 0
-427 423 424 0
427 -423 0
427 -424 0
-428 425 426 0
428 -425 0
428 -426 0
-429 427 428 0
429 -427 0
429 -428 0
-429 0
430 0
431 0
432 0
433 0
-434 0
435 0
445 -430 -433 0
-445 430 0
-445 433 0
451 -431 -435 0
-451 431 0
-451 435 0
452 -432 -434 0
-452 432 0
-452 434 0
439 -430 -434 0
-439 430 0
-439 434 0
446 -431 -433 0
-446 431 0
-446 433 0
443 -431 -435 0
-443 431 0
-443 435 0
442 -432 -434 0
-442 432 0
-442 434 0
450 -432 -435 0
-450 432 0
-450 435 0
440 -430 -435 0
-440 430 0
-440 435 0
437 -431 -434 0
-437 431 0
-437 434 0
438 -432 -433 0
-438 432 0
-438 433 0
449 -432 -435 0
-449 432 0
-449 435 0
-448 -445 -451 0
448 445 -451 0
448 -445 451 0
-448 445 451 0
-441 -439 -446 0
441 439 -446 0
441 -439 446 0
-441 439 446 0
-447 -443 -442 0
447 443 -442 0
447 -443 442 0
-447 443 442 0
-453 -440 -437 0
453 440 -437 0
453 -440 437 0
-453 440 437 0
-436 -438 -449 0
436 438 -449 0
436 -438 449 0
-436 438 449 0
-512 -448 -452 0
512 448 -452 0
512 -448 452 0
-512 448 452 0
441 -7 518 0
441 7 -518 0
-441 -8 518 0
-441 8 -518 0
441 -9 519 0
441 9 -519 0
-441 -10 519 0
-441 10 -519 0
447 -518 444 0
447 518 -444 0
-447 -519 444 0
-447 519 -444 0
-516 -453 -436 0
516 453 -436 0
516 -453 436 0
-516 453 436 0
-514 -444 -450 0
514 444 -450 0
514 -444 450 0
-514 444 450 0
479 -430 -430 0
-479 430 0
-479 430 0
491 -479 -479 0
-491 479 0
-491 479 0
480 -430 -430 0
-480 430 0
-480 430 0
474 -479 -479 0
-474 479 0
-474 479 0
-497 -491 -431 0
497 491 -431 0
497 -491 431 0
-497 491 431 0
-492 -480 -497 0
492 480 -497 0
492 -480 497 0
-492 480 497 0
-464 -474 -431 0
464 474 -431 0
464 -474 431 0
-464 474 431 0
490 -497 -497 0
-490 497 0
-490 497 0
-506 -492 -432 0
506 492 -432 0
506 -492 432 0
-506 492 432 0
-466 -464 -506 0
466 464 -506 0
466 -464 506 0
-466 464 506 0
-500 -490 -432 0
500 490 -432 0
500 -490 432 0
-500 490 432 0
494 -506 -506 0
-494 506 0
-494 506 0
486 -466 -466 0
-486 466 0
-486 466 0
510 -500 -500 0
-510 500 0
-510 500 0
478 -494 -494 0
-478 494 0
-478 494 0
468 -433 -433 0
-468 433 0
-468 433 0
462 -468 -468 0
-462 468 0
-462 468 0
507 -433 -433 0
-507 433 0
-507 433 0
472 -468 -468 0
-472 468 0
-472 468 0
-465 -462 -434 0
465 462 -434 0
465 -462 434 0
-465 462 434 0
-502 -507 -465 0
502 507 -465 0
502 -507 465 0
-502 507 465 0
-493 -472 -434 0
493 472 -434 0
493 -472 434 0
-493 472 434 0
456 -465 -465 0
-456 465 0
-456 465 0
-475 -502 -435 0
475 502 -435 0
475 -502 435 0
-475 502 435 0
-460 -493 -475 0
460 493 -475 0
460 -493 475 0
-460 493 475 0
-461 -456 -435 0
461 456 -435 0
461 -456 435 0
-461 456 435 0
459 -475 -475 0
-459 475 0
-459 475 0
483 -460 -460 0
-483 460 0
-483 460 0
503 -461 -461 0
-503 461 0
-503 461 0
498 -459 -459 0
-498 459 0
-498 459 0
484 -486 -483 0
-484 486 0
-484 483 0
520 -486 -503 0
-520 486 0
-520 503 0
-485 -520 -484 0
485 520 -484 0
485 -520 484 0
-485 520 484 0
521 -510 -483 0
-521 510 0
-521 483 0
-508 -521 -485 0
508 521 -485 0
508 -521 485 0
-508 521 485 0
463 -486 -498 0
-463 486 0
-463 498 0
482 -484 -484 0
-482 484 0
-482 484 0
522 -510 -503 0
-522 510 0
-522 503 0
-523 -522 -463 0
523 522 -463 0
523 -522 463 0
-523 522 463 0
-489 -523 -508 0
489 523 -508 0
489 -523 508 0
-489 523 508 0
524 -510 -498 0
-524 510 0
-524 498 0
-457 -524 -482 0
457 524 -482 0
457 -524 482 0
-457 524 482 0
455 -508 -508 0
-455 508 0
-455 508 0
525 -478 -483 0
-525 478 0
-525 483 0
-496 -525 -489 0
496 525 -489 0
496 -525 489 0
-496 525 489 0
526 -478 -503 0
-526 478 0
-526 503 0
-527 -526 -457 0
527 526 -457 0
527 -526 457 0
-527 526 457 0
-509 -527 -496 0
509 527 -496 0
509 -527 496 0
-509 527 496 0
528 -478 -498 0
-528 478 0
-528 498 0
-473 -528 -455 0
473 528 -455 0
473 -528 455 0
-473 528 455 0
487 -496 -496 0
-487 496 0
-487 496 0
458 -509 -509 0
-458 509 0
-458 509 0
469 -473 -473 0
-469 473 0
-469 473 0
477 -487 -487 0
-477 487 0
-477 487 0
476 -458 -458 0
-476 458 0
-476 458 0
505 -476 -476 0
-505 476 0
-505 476 0
470 -111 -111 0
-470 111 0
-470 111 0
471 -476 -476 0
-471 476 0
-471 476 0
-499 -505 -469 0
499 505 -469 0
499 -505 469 0
-499 505 469 0
-454 -470 -499 0
454 470 -499 0
454 -470 499 0
-454 470 499 0
504 -471 -471 0
-504 471 0
-504 471 0
511 -499 -499 0
-511 499 0
-511 499 0
-488 -454 -477 0
488 454 -477 0
488 -454 477 0
-488 454 477 0
-501 -504 -488 0
501 504 -488 0
501 -504 488 0
-501 504 488 0
467 -511 -511 0
-467 511 0
-467 511 0
481 -488 -488 0
-481 488 0
-481 488 0
513 -501 -501 0
-513 501 0
-513 501 0
515 -467 -467 0
-515 467 0
-515 467 0
517 -481 -481 0
-517 481 0
-517 481 0
-529 -512 -513 0
529 512 -513 0
529 -512 513 0
-529 512 513 0
-530 -514 -515 0
530 514 -515 0
530 -514 515 0
-530 514 515 0
-531 -516 -517 0
531 516 -517 0
531 -516 517 0
-531 516 517 0
-532 -111 -111 0
532 111 -111 0
532 -111 111 0
-532 111 111 0
-533 529 530 0
533 -529 0
533 -530 0
-534 531 532 0
534 -531 0
534 -532 0
-535 533 534 0
535 -533 0
535 -534 0
-535 0
